
#   This LAMMPS input script simulates the formation of dense nanobubbles in water under cyclic loading, 
#   which is a supplement to the article "Interfacial thermal fluctuations stabilize bulk nanobubbles".

#   Learn more: https://journals.aps.org/prl/abstract/10.1103/PhysRevLett.133.104001



## Parameterization                    
variable 		timestep    equal 1.0                     
variable 		e_rate      equal 0.75e-5                 
variable 		e_step      equal 20000                   
variable 		Nl          equal 20                       
                    

## Simulation settings
dimension    	3
boundary     	p p p
units        	real
atom_style   	full
neighbor 1.0 	bin
neigh_modify 	every 1 delay 0 check yes


##
pair_style      lj/cut/tip4p/long 1 2 1 1 0.1546 12.5 8.5
bond_style   	harmonic
angle_style   	harmonic
kspace_style    pppm/tip4p 1.0e-5
pair_modify     tail yes mix arithmetic 
region        	box block 0 160 0 160 0 160  units box
create_box    	3 box &
				bond/types 2 &
				angle/types 1 &
				extra/bond/per/atom 2 &
				extra/angle/per/atom 1 &
				extra/special/per/atom 2
lattice       	sc  3.2
molecule      	h2omol H2O.data
molecule      	o2mol  O2.data offset 1 1 0 0 0
create_atoms  	0 region box mol h2omol 6654 units box
create_atoms  	1 random 2000 9555 NULL mol o2mol 8422

mass          	1 15.9994
mass          	2 1.008
mass          	3 15.9994
pair_coeff    	1 1  0.18520 3.1589 
pair_coeff    	* 2  0.0  0.0
pair_coeff    	3 3  0.1033 2.99 
bond_coeff      1  0.0      0.9572
bond_coeff      2  1694.06  1.2074
angle_coeff     1  0.0      104.52


group           tip4p2005 type  1  2 
group           o2        type  3
fix             fshack tip4p2005 shake 0.0001 10 0 b 1 a 1
compute         1 all stress/atom NULL
write_data      watbox.data

## Relaxation
timestep        ${timestep}
reset_timestep  0
velocity        all create 10.0 12345678 dist uniform
thermo          100
fix             1 tip4p2005 viscous 0.1
fix             2 o2 nve/limit 0.1
thermo_style    custom step temp press etotal density vol lx ly lz
dump            1 all custom 1000 temp.lammpstrj id mol type x y z ix iy iz
run             50000
unfix           1
unfix           2
fix             1 all npt temp 300.0 300.0 100.0 iso 1.0 1.0 1000.0
run             200000 
write_restart   watbox_afternpt_300K_1atm.restart
unfix           1

undump          1


## Simulation of acoustic cavitation
variable        tmp equal lz                                                      
variable        l0  equal ${tmp}                                                  
variable        et  equal ${e_rate}*v_l0/lz                                                 
variable        ec  equal -${e_rate}*v_l0/lz                                               
reset_timestep  0
thermo          100
thermo_style    custom step temp press etotal density vol lx ly lz pzz
fix             1 all nve                                                         
fix             2 all deform 1000 z erate ${e_rate}                                 
dump            1 all custom 1000 loading.lammpstrj id mol type x y z ix iy iz vx vy vz c_1[*]
run             ${e_step}                                                                
unfix           2                                                                 
undump          1
dump            1 all custom 1000 equilibrium.lammpstrj id mol type x y z ix iy iz vx vy vz c_1[*]
run             200000                                                           
undump          1
label  loop                                                                       
variable        a loop ${Nl}
fix             2 all deform 1000 z erate ${ec}                                   
dump            1 all custom 1000 loading_c_${a}.lammpstrj id mol type x y z ix iy iz vx vy vz c_1[*]
run             ${e_step}
unfix           2
undump          1
dump            1 all custom 1000 equilibrium_c_${a}.lammpstrj id mol type x y z ix iy iz vx vy vz c_1[*]
run             200000
undump          1
fix             2 all deform 1000 z erate ${et}                                   
dump            1 all custom 1000 loading_t_${a}.lammpstrj id mol type x y z ix iy iz vx vy vz c_1[*]
run             ${e_step}
unfix           2
undump          1
dump            1 all custom 1000 equilibrium_t_${a}.lammpstrj id mol type x y z ix iy iz vx vy vz c_1[*]
run             200000
undump          1
next 			a
jump 			SELF loop
write_restart   cavitation.restart
