
#   This LAMMPS input script simulates cavitation in water under negative pressure, 
#   which is a supplement to the article "Interfacial thermal fluctuations stabilize bulk nanobubbles".




## Parameterization
variable 		lxx         equal 1024     # Cubic box lengths in the paper include: 48/96/160/192/256/512/1024 (units:Å)                  
variable 		lyy         equal 1024                          
variable 		lzz         equal 1024                     
variable 		timestep    equal 1.0                     
variable 		e_rate      equal 3.0e-5                 
variable 		e_step      equal 5000                                      
                    

## Simulation settings
dimension    	3                                                                     
boundary     	p p p                                                                 
units        	real                                                                  
atom_style      full                                                                  
neighbor        1.0 bin                                                                   
neigh_modify    every 1 delay 0 check yes


## 
pair_style      lj/cut/tip4p/long 1 2 1 1 0.1546 12.5 8.5                          
bond_style      harmonic                                                             
angle_style     harmonic                                                             
region          box block 0 ${lxx} 0 ${lyy} 0 ${lzz} units box                              
create_box      2 box &
                bond/types 1 &
                angle/types 1 & 
                extra/bond/per/atom 2 &
                extra/angle/per/atom 1 &
                extra/special/per/atom 2
lattice         sc  3.2                                                                   
region          liquid block 0 ${lxx} 0 ${lyy} 0 ${lzz} units box                                  
molecule        h2omol H2O.data                                                         
create_atoms    0 region liquid mol h2omol 6654 units box                            
mass            1 15.9994                                                    
mass            2 1.008
pair_coeff      1 1  0.1852 3.1589                                               
pair_coeff      * 2  0.0  0.0 
bond_coeff      1 0.0 0.9572
angle_coeff     1 0.0 104.52 
kspace_style    pppm/tip4p 1.0e-5                                                 
pair_modify     tail yes mix arithmetic 
group           tip4p2005 type  1  2                                                        
fix             fSHAKE tip4p2005 shake 0.0001 10 0 b 1 a 1
compute         1 all stress/atom NULL


## Relaxation
timestep        ${timestep}                                                                
reset_timestep  0                                                                  
thermo          100                                                                
fix             1 all npt temp 300.0 300.0 100.0 iso 1.0 1.0 1000.0                
thermo_style    custom step temp press etotal density vol lx ly lz                 
dump            1 all custom 100000 temp.lammpstrj id mol type x y z ix iy iz         
run             200000                                                             
write_data 		watbox_afternpt_300K_1atm.data                                           
write_restart   watbox_afternpt_300K_1atm.restart                                  
unfix           1                                                                 
undump          1                                                                  


## Simulation of acoustic cavitation
variable        tmp equal lz                                                      
variable        l0  equal ${tmp}                                                  
variable        et  equal ${e_rate}*v_l0/lz                                                 
variable        ec  equal -${e_rate}*v_l0/lz                                               
reset_timestep  0
thermo          100
thermo_style    custom step temp press etotal density vol lx ly lz pzz
fix             1 all nve                                                         
fix             2 all deform 1000 z erate ${e_rate}                                 
dump            1 all custom 1000 loading.lammpstrj id mol type x y z ix iy iz vx vy vz c_1[*]
run             ${e_step}                                                                
unfix           2                                                                 
undump          1
dump            1 all custom 100000 equilibrium.lammpstrj id mol type x y z ix iy iz vx vy vz c_1[*]
run             200000                                                           
undump          1
write_restart   cavitation.restart

# Extending the relaxation time after loading or using restart files can further advance the cavitation process.

